牛客/2019牛客暑期多校训练营/数据/9_D_Knapsack Cryptosystem/4.in
36 1334841508586858
124164650198922 80552490936680 15134252043317 8462424455513 68999432628781 50774546733078 110011517921669 44274361809693 103682975662703 23988698048118 113886194872631 89356068935343 54938443328208 32265623232240 107199297359824 115010801813609 90444764286534 39857326742857 69883453035830 80312458826358 142262643728183 97152543210876 40545736472037 93099590139049 12012566115 67235362645203 111225470006996 14186750495613 128661144452214 96272122064313 63812300299676 56632267195926 79658377210927 43164967368045 35548374784739 80307210995164
